3
8
20
1 1.3 1.55 1.75 2.1
44 9 28 45 44 19 20 11 24 23 22 39 43 45 35 10 8 6 36 20 24 17 42 30 49 45 49 20 37 6 20 41 27 7 21 8 24 30 24 32 24 8 27 23 15 35 23 7 46 7 15 14 35 42 21 34 39 16 27 11 6 22 11 41 24 20 37 25 49 35 11 46 48 44 14 37 27 13 44 43 35 12 24 37 21 38 43 19 29 8 43 33 47 19 19 27 10 44 9 34 24 44 27 13 35 37 36 22 8 10 48 27 38 47 11 42 49 8 29 21 6 41 28 40 38 15 27 36 31 31 44 32 34 48 29 39 49 23 39 38 22 23 15 10 21 8 38 48 29 33 7 19 31 17 6 18 41 36 16 14 